
--- Job JTW_HW5_Dual.gms Start 10/04/20 22:55:33 32.2.0 rc62c018 WEX-WEI x86 64bit/MS Windows
--- Applying:
    C:\GAMS\32\gmsprmNT.txt
--- GAMS Parameters defined
    Input "C:\Users\joshu\OneDrive - aggiemail.usu.edu\CourseWork\Fall 2020\CEE 5410 Water Systems Analysis\GitHub Respository\JTW_CEE5410_Repo\HW5 Dual and Integer\JTW_HW5_Dual.gms"
    PageWidth 80
    PageSize 0
    PageContr 3
    Action CE
    ScrDir "C:\Users\joshu\OneDrive - aggiemail.usu.edu\CourseWork\Fall 2020\CEE 5410 Water Systems Analysis\GitHub Respository\JTW_CEE5410_Repo\Output\225a\"
    SysDir C:\GAMS\32\
    WorkDir "C:\Users\joshu\OneDrive - aggiemail.usu.edu\CourseWork\Fall 2020\CEE 5410 Water Systems Analysis\GitHub Respository\JTW_CEE5410_Repo\Output\"
    LogOption 3
    DFormat 0
    TFormat 0
    ErrorLog 99
    IDE 1
GAMS 32.2.0   Copyright (C) 1987-2020 GAMS Development. All rights reserved
Licensee: Small MUD - 5 User License                     G200622/0001AP-GEN
          Utah State University, Utah Water Research Laboratory      DC7087
          C:\GAMS\32\gamslice.txt
--- Starting compilation
--- JTW_HW5_Dual.gms(176) 3 Mb
--- Starting execution: elapsed 0:00:00.112
--- JTW_HW5_Dual.gms(169) 4 Mb
--- Generating LP model DUAL
--- JTW_HW5_Dual.gms(173) 4 Mb
---   36 rows  32 columns  97 non-zeroes
--- Executing CPLEX (Solvelink=2): elapsed 0:00:00.188

IBM ILOG CPLEX   32.2.0 rc62c018 Released Aug 26, 2020 WEI x86 64bit/MS Window
--- GAMS/Cplex Link licensed for continuous and discrete problems.
Cplex 12.10.0.0

Reading parameter(s) from "C:\Users\joshu\OneDrive - aggiemail.usu.edu\CourseWork\Fall 2020\CEE 5410 Water Systems Analysis\GitHub Respository\JTW_CEE5410_Repo\Output\cplex.opt"
>>  objrng all
>>  rhsrng all
Finished reading from "C:\Users\joshu\OneDrive - aggiemail.usu.edu\CourseWork\Fall 2020\CEE 5410 Water Systems Analysis\GitHub Respository\JTW_CEE5410_Repo\Output\cplex.opt"
Reading data...
Starting Cplex...
Space for names approximately 0.00 Mb
Use option 'names no' to turn use of names off
Version identifier: 12.10.0.0 | 2019-11-26 | 843d4de2ae
CPXPARAM_Advance                                 0
CPXPARAM_Threads                                 1
CPXPARAM_Parallel                                1
Bound infeasibility column 'Y(M1.div_mb)'.
Presolve time = 0.00 sec. (0.00 ticks)
LP status(3): infeasible
Cplex Time: 0.00sec (det. 0.00 ticks)
Rerunning with presolve turned off and solving with LPMETHOD=1
Version identifier: 12.10.0.0 | 2019-11-26 | 843d4de2ae
CPXPARAM_Advance                                 2
CPXPARAM_Preprocessing_Presolve                  0
CPXPARAM_LPMethod                                1
CPXPARAM_Threads                                 1
CPXPARAM_Parallel                                1

Iteration log . . .
Iteration:     1    Infeasibility =            16.268886
LP status(3): infeasible
Cplex Time: 0.00sec (det. 0.03 ticks)

Model has been proven infeasible.
RHS ranging...
Objective ranging...
CPLEX Error  1260: Sensitivity analysis not available for current status.
CPLEX Error  1260: Sensitivity analysis not available for current status.
--- Reading solution for model DUAL
--- Executing after solve: elapsed 0:00:00.445
--- JTW_HW5_Dual.gms(176) 4 Mb
--- GDX File C:\Users\joshu\OneDrive - aggiemail.usu.edu\CourseWork\Fall 2020\CEE 5410 Water Systems Analysis\GitHub Respository\JTW_CEE5410_Repo\Output\JTW_HW5_DUAL.gdx
*** Status: Normal completion
--- Job JTW_HW5_Dual.gms Stop 10/04/20 22:55:33 elapsed 0:00:00.498
